200
200 200
1 160 609
2 159 80
3 159 95
4 158 261
5 157 589
6 157 469
7 156 258
8 155 946
9 155 900
10 155 781
11 155 193
12 154 748
13 154 15
14 153 384
15 150 48
16 150 551
17 150 836
18 149 586
19 149 663
20 148 480
21 148 652
22 147 711
23 147 424
24 146 855
25 145 739
26 144 688
27 144 312
28 144 780
29 143 982
30 140 916
31 139 165
32 139 755
33 138 802
34 138 201
35 136 553
36 136 591
37 136 468
38 134 734
39 133 885
40 133 521
41 133 73
42 133 623
43 132 133
44 131 346
45 131 407
46 131 757
47 129 379
48 129 20
49 128 663
50 128 494
51 127 272
52 127 686
53 126 981
54 126 209
55 125 763
56 124 224
57 124 517
58 121 43
59 121 409
60 120 537
61 120 10
62 120 283
63 119 332
64 118 918
65 118 866
66 118 313
67 117 967
68 117 342
69 117 375
70 116 270
71 115 100
72 112 501
73 112 66
74 111 982
75 111 128
76 111 907
77 109 455
78 109 131
79 107 663
80 106 214
81 106 389
82 106 68
83 101 309
84 100 34
85 100 743
86 100 90
87 95 799
88 95 809
89 94 111
90 93 990
91 93 362
92 92 511
93 92 234
94 91 481
95 90 544
96 89 38
97 89 501
98 89 746
99 88 204
100 88 887
101 87 316
102 86 98
103 84 420
104 84 370
105 82 159
106 81 848
107 81 844
108 80 13
109 80 219
110 78 62
111 77 606
112 77 215
113 76 511
114 76 159
115 75 201
116 74 274
117 74 193
118 74 412
119 73 316
120 73 476
121 73 697
122 72 407
123 71 126
124 69 778
125 68 959
126 68 960
127 67 138
128 67 350
129 66 965
130 66 387
131 65 86
132 65 467
133 65 111
134 63 498
135 62 705
136 61 146
137 60 774
138 59 660
139 59 182
140 58 220
141 58 41
142 57 418
143 56 507
144 56 543
145 55 706
146 55 730
147 53 183
148 53 981
149 53 652
150 52 132
151 51 148
152 51 230
153 49 91
154 49 979
155 48 236
156 47 533
157 47 89
158 46 825
159 46 471
160 45 412
161 44 486
162 44 726
163 43 398
164 43 21
165 42 289
166 42 531
167 40 681
168 40 49
169 40 476
170 39 389
171 38 973
172 38 332
173 35 16
174 35 607
175 35 108
176 35 293
177 35 301
178 35 316
179 34 169
180 34 37
181 32 324
182 32 239
183 32 759
184 31 952
185 30 249
186 30 959
187 30 530
188 28 876
189 27 585
190 26 610
191 26 650
192 26 940
193 25 603
194 25 210
195 25 208
196 23 480
197 23 41
198 20 950
199 20 879
200 20 20
